% Definición de enumerados
nombres = {Ana, Luis, Carla};
apellidos = {Martinez, Rodriguez, Perez};
genero_musicales = {Rock, Electronica, Salsa};

% Valores posibles
nombres_posibles = [Ana, Luis, Carla];
apellidos_posibles = [Martinez, Rodriguez, Perez];
musicas_posibles = [Rock, Electronica, Salsa];

% Rango de edades
edades = {28, 32, 35};

% Parámetros de relaciones
nombre_mayor = Carla;
apellido_clasico = Martinez;
nombre_edad_fija = Carla;  
edad_fija = 35;
apellido_excluido = Perez;
nombre_no_jazz = Luis; 
apellido_no_pop = Rodriguez; 
musica_clasica = Rock;
musica_pop = Electronica;
musica_jazz = Salsa;